n_machines = 5;
n_resources = 10;
n_jobs = 50;
horizon = 2164;
LB = 432;
n_jobs_per_resource = [5, 5, 5, 5, 5, 5, 5, 5, 5, 5];
duration = [18, 30, 3, 27, 49, 10, 64, 9, 96, 17, 18, 1, 33, 68, 86, 92, 94, 39, 94, 56, 6, 75, 18, 79, 71, 25, 74, 7, 26, 57, 47, 91, 78, 4, 35, 65, 32, 2, 97, 20, 29, 71, 23, 44, 14, 97, 6, 12, 52, 3]